DIMENSION: 12
EDGE_WEIGHT_TYPE: EXPLICIT
EDGE_WEIGHT_FORMAT: FULL_MATRIX
EDGE_WEIGHT_SECTION:
32767 32767 32767 83 32767 32767 32767 3 16 16 32767 32767 
32767 32767 32767 20 51 32767 32767 32767 79 32767 82 32767 
32767 32767 32767 32767 47 32767 81 32767 2 32767 77 76 
83 20 32767 32767 32767 32767 15 99 14 67 32767 32767 
32767 51 47 32767 32767 32767 32767 32767 64 32767 10 98 
32767 32767 32767 32767 32767 32767 27 32767 20 32767 80 12 
32767 32767 81 15 32767 27 32767 64 32767 63 32767 5 
3 32767 32767 99 32767 32767 64 32767 35 32767 32767 32767 
16 79 2 14 64 20 32767 35 32767 84 33 63 
16 32767 32767 67 32767 32767 63 32767 84 32767 74 71 
32767 82 77 32767 10 80 32767 32767 33 74 32767 100 
32767 32767 76 32767 98 12 5 32767 63 71 100 32767 
EOF